0 0 1 7 2 8 1 1 1 6 8 0 2 7 -1 
3 5 4 5 6 6 4 -1 3 4 8 6 1 8 -1 
6 1 3 4 6 1 6 8 3 3 4 3 1 5 -1 
3 7 7 6 6 -1 6 0 1 1 8 7 1 -1 -1 
3 0 0 8 0 -1 5 0 0 8 8 9 2 2 -1 
6 4 8 -1 9 5 7 6 2 9 -1 5 3 5 -1 
0 2 0 5 4 3 -1 2 8 4 6 2 6 4 -1 
8 6 -1 4 7 -1 1 8 9 2 4 4 2 3 -1 
0 0 -1 2 3 7 0 5 6 3 9 6 5 1 -1 
7 2 2 1 0 3 9 3 7 5 9 7 8 7 -1 
